60204663668838181504,3,1,2,07,5,1,2,015,1,1,2,011,5,1,2,01,10,1,2,014,13,1,2,02,10,1,2,06,6,1,2,09,5,1,2,05,12,1,2,07,8,1,2,04,11,1,2,014,9,1,2,08,9,1,2,01,3,1,2,01,11,1,2,03,14,1,2,01,2,1,2,05,10,1,2,014,8,1,2,07,11,1,2,08,14,1,2,02,2,1,2,014,14,1,2,09,14,1,2,01,6,1,2,06,9,1,2,01,11,1,2,04,2,1,2,08,1,1,2,013,10,1,2,01,10,1,2,06,9,1,2,014,4,1,2,014,13,1,2,08,13,1,2,06,4,1,2,02,11,1,2,08,1,1,2,015,13,1,2,05,1,1,2,013,1,1,2,05,10,1,2,013,14,1,2,04,4,1,2,07,14,1,2,05,2,1,2,011,5,1,2,03,11,1,2,014,12,1,2,0